DIMACS_lns/graph-1000-13.col
p edge 1000 1832
e 1 525
e 1 56
e 1 766
e 1 998
e 1 574
e 1 199
e 2 394
e 2 352
e 2 51
e 2 6
e 2 671
e 4 307
e 4 325
e 4 994
e 4 463
e 6 31
e 6 865
e 6 70
e 6 694
e 7 614
e 7 988
e 7 554
e 9 65
e 9 792
e 9 464
e 9 345
e 13 816
e 13 557
e 13 614
e 13 299
e 13 998
e 14 268
e 14 30
e 14 450
e 14 972
e 14 193
e 15 491
e 15 286
e 15 774
e 16 875
e 16 449
e 16 800
e 16 315
e 16 692
e 16 994
e 16 935
e 16 26
e 18 626
e 18 113
e 18 972
e 18 858
e 19 330
e 19 486
e 19 603
e 19 38
e 20 964
e 20 229
e 20 576
e 23 501
e 23 239
e 23 136
e 23 496
e 23 25
e 23 149
e 23 459
e 24 613
e 24 479
e 24 494
e 24 812
e 24 144
e 24 685
e 24 280
e 24 186
e 24 735
e 25 308
e 25 46
e 25 778
e 25 78
e 25 589
e 26 734
e 26 659
e 26 254
e 26 575
e 26 185
e 26 644
e 28 548
e 28 602
e 28 378
e 28 194
e 28 571
e 29 381
e 29 172
e 29 622
e 29 946
e 29 511
e 29 865
e 29 337
e 30 691
e 30 216
e 30 902
e 31 876
e 31 824
e 31 234
e 31 905
e 31 565
e 31 696
e 31 866
e 32 167
e 32 217
e 32 268
e 37 656
e 37 795
e 37 865
e 37 813
e 37 248
e 37 100
e 38 565
e 38 880
e 38 485
e 39 250
e 39 299
e 39 556
e 39 273
e 40 226
e 40 534
e 40 672
e 40 460
e 40 523
e 40 580
e 41 130
e 41 314
e 41 685
e 41 44
e 42 643
e 42 492
e 42 955
e 44 922
e 44 304
e 45 291
e 45 885
e 45 149
e 45 431
e 45 639
e 45 490
e 46 699
e 46 535
e 46 284
e 46 905
e 46 362
e 46 248
e 47 711
e 47 307
e 47 913
e 47 644
e 49 636
e 49 58
e 49 994
e 49 249
e 49 133
e 50 559
e 50 594
e 50 406
e 50 443
e 50 330
e 50 512
e 51 831
e 51 322
e 52 292
e 52 538
e 52 994
e 52 545
e 52 226
e 53 494
e 53 184
e 53 557
e 53 613
e 53 215
e 54 549
e 54 626
e 54 818
e 54 881
e 55 996
e 55 859
e 55 938
e 55 725
e 55 539
e 55 471
e 56 536
e 56 931
e 56 797
e 56 556
e 58 832
e 58 573
e 58 421
e 58 680
e 58 1000
e 59 843
e 59 929
e 59 894
e 59 963
e 59 264
e 60 825
e 60 520
e 60 373
e 63 972
e 63 310
e 63 388
e 63 428
e 63 873
e 63 671
e 64 262
e 64 403
e 64 425
e 64 281
e 65 951
e 65 359
e 66 455
e 66 155
e 66 500
e 68 969
e 68 624
e 68 298
e 68 940
e 70 179
e 70 855
e 70 437
e 70 260
e 72 182
e 72 926
e 72 250
e 72 672
e 72 229
e 73 404
e 73 141
e 73 280
e 74 217
e 74 693
e 74 219
e 74 711
e 74 544
e 74 80
e 76 451
e 76 132
e 76 748
e 76 863
e 78 260
e 78 340
e 78 100
e 78 153
e 78 381
e 79 898
e 79 212
e 79 308
e 79 103
e 80 780
e 80 926
e 80 295
e 80 614
e 80 834
e 80 959
e 80 757
e 81 525
e 81 148
e 81 612
e 81 852
e 82 873
e 82 366
e 82 306
e 83 291
e 83 573
e 83 779
e 83 582
e 83 861
e 85 791
e 85 267
e 85 582
e 85 137
e 86 982
e 86 377
e 86 619
e 86 334
e 86 949
e 87 283
e 87 356
e 87 867
e 90 890
e 90 176
e 90 871
e 91 351
e 91 536
e 91 965
e 91 117
e 91 321
e 92 932
e 92 255
e 92 411
e 92 722
e 93 982
e 93 438
e 93 797
e 93 781
e 94 602
e 94 708
e 94 113
e 96 667
e 96 992
e 96 372
e 96 147
e 96 955
e 97 765
e 97 843
e 97 282
e 98 472
e 98 289
e 98 258
e 98 832
e 99 703
e 99 377
e 99 172
e 99 186
e 100 892
e 100 470
e 100 905
e 100 103
e 100 573
e 101 368
e 101 451
e 101 216
e 101 482
e 101 626
e 101 546
e 102 874
e 102 666
e 102 493
e 103 368
e 103 255
e 104 386
e 104 755
e 104 118
e 104 708
e 104 445
e 105 818
e 105 524
e 105 134
e 105 174
e 105 927
e 106 671
e 106 131
e 106 698
e 107 110
e 107 911
e 107 926
e 107 773
e 107 888
e 109 950
e 109 211
e 109 866
e 109 116
e 109 223
e 109 547
e 109 625
e 110 253
e 110 388
e 110 450
e 110 837
e 110 397
e 111 459
e 111 562
e 111 618
e 111 224
e 113 307
e 113 655
e 113 477
e 113 166
e 113 842
e 114 228
e 114 531
e 114 922
e 114 560
e 115 209
e 115 315
e 115 184
e 116 490
e 116 790
e 116 899
e 117 370
e 117 707
e 117 173
e 117 309
e 117 909
e 117 734
e 118 593
e 118 127
e 118 834
e 118 226
e 118 849
e 119 863
e 119 498
e 119 470
e 121 741
e 121 397
e 121 123
e 121 957
e 121 548
e 123 680
e 123 692
e 123 843
e 124 367
e 124 204
e 124 615
e 124 642
e 124 512
e 125 284
e 125 216
e 125 571
e 125 492
e 125 600
e 125 846
e 126 692
e 126 457
e 126 151
e 126 182
e 126 779
e 127 549
e 127 522
e 127 259
e 130 604
e 130 821
e 130 341
e 130 581
e 130 255
e 130 590
e 131 513
e 131 174
e 131 416
e 131 692
e 131 247
e 131 172
e 132 181
e 132 296
e 132 496
e 132 999
e 132 520
e 132 185
e 132 838
e 133 345
e 133 579
e 133 349
e 133 567
e 134 874
e 134 253
e 134 918
e 134 639
e 134 669
e 134 400
e 135 186
e 135 193
e 135 313
e 136 510
e 136 909
e 136 177
e 137 153
e 137 426
e 137 223
e 137 701
e 137 390
e 138 562
e 138 708
e 138 918
e 138 799
e 138 924
e 138 486
e 139 317
e 139 479
e 139 310
e 141 157
e 141 639
e 141 326
e 141 498
e 141 730
e 142 604
e 142 455
e 142 723
e 142 774
e 142 660
e 144 383
e 144 153
e 144 760
e 144 796
e 144 512
e 147 517
e 147 587
e 147 158
e 147 839
e 148 690
e 148 289
e 149 307
e 149 932
e 149 420
e 149 707
e 150 163
e 150 897
e 150 397
e 150 572
e 150 385
e 150 580
e 151 498
e 151 850
e 152 156
e 152 899
e 152 603
e 153 654
e 153 839
e 153 798
e 153 253
e 153 615
e 153 935
e 154 470
e 154 495
e 154 695
e 154 852
e 154 864
e 155 511
e 155 908
e 155 842
e 155 375
e 156 421
e 156 590
e 156 940
e 157 783
e 157 563
e 157 662
e 157 959
e 157 182
e 157 379
e 158 274
e 158 651
e 158 535
e 158 930
e 159 757
e 159 549
e 159 716
e 159 361
e 159 524
e 160 225
e 160 818
e 160 879
e 160 305
e 160 928
e 160 314
e 162 570
e 162 194
e 162 495
e 162 942
e 162 203
e 162 742
e 162 326
e 163 470
e 163 979
e 163 524
e 164 654
e 164 850
e 164 773
e 164 253
e 164 531
e 165 682
e 165 623
e 165 683
e 165 372
e 165 314
e 166 425
e 166 369
e 167 979
e 167 464
e 168 819
e 168 909
e 168 997
e 168 720
e 168 457
e 168 910
e 168 201
e 169 431
e 169 462
e 169 687
e 169 398
e 172 234
e 173 671
e 173 329
e 174 726
e 174 788
e 174 417
e 174 585
e 174 700
e 175 697
e 175 523
e 175 452
e 175 465
e 176 854
e 176 498
e 176 357
e 176 989
e 176 714
e 177 901
e 177 660
e 179 789
e 179 588
e 179 546
e 179 223
e 180 367
e 180 755
e 180 703
e 180 225
e 180 944
e 180 256
e 181 823
e 181 546
e 181 939
e 181 437
e 182 391
e 182 531
e 183 915
e 183 350
e 183 313
e 183 996
e 183 674
e 184 520
e 184 881
e 184 644
e 185 394
e 185 366
e 185 388
e 186 557
e 186 240
e 192 535
e 192 290
e 192 424
e 192 765
e 192 516
e 193 887
e 193 984
e 193 308
e 193 472
e 193 279
e 194 993
e 194 719
e 194 642
e 194 931
e 194 863
e 195 216
e 195 711
e 195 339
e 195 485
e 196 654
e 196 243
e 196 673
e 197 703
e 197 837
e 197 981
e 199 498
e 199 231
e 199 642
e 199 420
e 199 542
e 201 485
e 201 628
e 201 935
e 203 469
e 203 540
e 203 804
e 204 443
e 204 887
e 205 322
e 205 448
e 205 491
e 205 335
e 205 576
e 206 714
e 206 933
e 206 539
e 208 352
e 208 553
e 208 982
e 208 615
e 208 333
e 208 979
e 209 582
e 209 849
e 211 494
e 211 296
e 211 317
e 211 404
e 211 221
e 212 484
e 212 875
e 212 871
e 212 586
e 214 662
e 214 378
e 214 951
e 215 380
e 215 695
e 215 601
e 215 323
e 216 472
e 216 508
e 216 816
e 216 777
e 216 869
e 216 680
e 217 695
e 217 250
e 218 273
e 218 445
e 218 519
e 218 974
e 219 831
e 219 269
e 219 589
e 220 411
e 220 625
e 220 469
e 220 735
e 220 619
e 220 240
e 221 711
e 221 837
e 221 842
e 221 543
e 221 894
e 221 891
e 221 909
e 222 570
e 222 869
e 222 400
e 223 508
e 223 664
e 223 665
e 223 893
e 224 622
e 224 230
e 224 610
e 225 496
e 225 600
e 225 563
e 225 781
e 226 824
e 227 987
e 227 413
e 227 259
e 227 729
e 227 558
e 228 960
e 228 680
e 228 302
e 228 647
e 228 832
e 229 920
e 230 434
e 230 924
e 230 458
e 230 603
e 231 422
e 231 679
e 232 914
e 232 349
e 232 902
e 232 406
e 233 993
e 233 898
e 233 564
e 234 922
e 234 588
e 234 795
e 234 655
e 238 350
e 238 314
e 238 885
e 238 391
e 238 693
e 239 899
e 239 420
e 239 338
e 239 823
e 239 482
e 240 500
e 240 785
e 242 1000
e 242 739
e 242 291
e 242 358
e 243 381
e 243 741
e 243 627
e 243 893
e 243 916
e 243 816
e 245 621
e 245 868
e 245 331
e 245 755
e 245 938
e 246 921
e 246 592
e 246 329
e 247 450
e 247 859
e 248 854
e 248 774
e 248 546
e 248 611
e 248 882
e 249 797
e 249 921
e 249 403
e 249 782
e 250 346
e 250 723
e 251 259
e 251 940
e 251 704
e 251 768
e 251 539
e 251 737
e 254 545
e 254 853
e 254 290
e 255 738
e 255 711
e 255 707
e 255 791
e 256 339
e 256 590
e 258 813
e 258 338
e 258 570
e 258 636
e 259 462
e 259 862
e 260 534
e 261 628
e 261 816
e 261 969
e 261 748
e 261 401
e 261 506
e 261 618
e 262 559
e 262 785
e 262 618
e 262 805
e 262 279
e 262 590
e 264 334
e 264 780
e 264 794
e 264 851
e 264 659
e 265 572
e 265 779
e 265 784
e 266 331
e 266 344
e 266 704
e 267 977
e 267 442
e 268 522
e 268 955
e 269 719
e 269 494
e 270 955
e 270 789
e 270 364
e 272 748
e 272 774
e 272 902
e 272 698
e 273 368
e 274 629
e 274 615
e 274 401
e 279 341
e 279 635
e 280 497
e 280 559
e 280 809
e 280 524
e 281 795
e 281 353
e 281 681
e 282 864
e 282 336
e 282 625
e 282 797
e 283 505
e 283 813
e 284 512
e 284 353
e 284 900
e 286 682
e 286 309
e 286 874
e 286 460
e 288 804
e 288 440
e 288 540
e 288 807
e 288 867
e 289 610
e 289 900
e 290 581
e 290 900
e 290 739
e 290 949
e 291 394
e 291 367
e 291 763
e 291 617
e 292 795
e 292 651
e 292 446
e 295 667
e 295 956
e 295 925
e 296 576
e 296 716
e 296 977
e 296 501
e 296 359
e 298 743
e 298 704
e 298 461
e 299 972
e 299 957
e 299 467
e 299 997
e 299 973
e 299 819
e 302 621
e 302 898
e 302 669
e 302 344
e 302 397
e 302 358
e 303 411
e 303 649
e 303 564
e 303 638
e 303 426
e 304 865
e 304 511
e 304 976
e 304 741
e 304 536
e 305 752
e 305 453
e 305 984
e 305 556
e 305 744
e 306 361
e 306 855
e 306 477
e 306 678
e 306 362
e 306 554
e 306 346
e 307 840
e 307 854
e 307 940
e 307 886
e 308 876
e 308 949
e 308 375
e 308 459
e 309 679
e 309 601
e 310 920
e 310 407
e 310 391
e 311 635
e 311 938
e 311 752
e 313 848
e 314 820
e 314 604
e 315 672
e 317 865
e 317 484
e 318 678
e 318 332
e 318 949
e 318 411
e 319 834
e 319 462
e 319 461
e 319 694
e 321 601
e 321 547
e 322 891
e 323 385
e 323 523
e 323 344
e 323 611
e 323 924
e 323 918
e 323 604
e 325 638
e 325 840
e 326 894
e 328 865
e 328 789
e 328 584
e 328 904
e 329 344
e 330 486
e 330 778
e 330 583
e 331 715
e 331 685
e 331 619
e 331 779
e 332 998
e 332 353
e 332 821
e 333 805
e 333 502
e 333 988
e 333 584
e 333 922
e 334 778
e 334 339
e 334 678
e 334 644
e 335 508
e 335 463
e 335 406
e 335 413
e 336 623
e 336 449
e 336 405
e 337 691
e 337 476
e 337 457
e 337 892
e 338 403
e 338 980
e 338 465
e 338 736
e 339 460
e 339 393
e 339 480
e 339 970
e 340 424
e 340 854
e 340 692
e 340 450
e 340 388
e 340 364
e 341 405
e 341 686
e 341 474
e 343 715
e 343 693
e 343 369
e 343 666
e 343 602
e 343 607
e 343 564
e 343 432
e 344 846
e 344 347
e 345 933
e 345 930
e 346 914
e 347 398
e 347 534
e 347 826
e 348 788
e 348 871
e 348 986
e 349 906
e 349 568
e 349 964
e 350 512
e 350 739
e 351 587
e 351 935
e 352 842
e 352 649
e 352 786
e 352 564
e 353 984
e 354 490
e 354 845
e 354 553
e 355 549
e 355 568
e 355 602
e 355 525
e 356 628
e 356 576
e 357 428
e 357 364
e 357 752
e 358 505
e 358 544
e 359 861
e 359 525
e 359 419
e 359 979
e 361 686
e 361 794
e 362 963
e 362 553
e 364 841
e 364 795
e 364 847
e 364 945
e 364 513
e 364 515
e 366 767
e 366 453
e 367 577
e 367 549
e 367 458
e 368 519
e 369 992
e 369 447
e 369 601
e 369 581
e 370 972
e 370 792
e 370 589
e 372 678
e 372 800
e 372 426
e 372 601
e 373 673
e 373 959
e 373 781
e 373 987
e 374 447
e 374 970
e 374 564
e 374 690
e 375 875
e 375 940
e 375 687
e 377 848
e 378 493
e 378 703
e 378 659
e 378 557
e 378 746
e 378 465
e 379 923
e 379 461
e 380 540
e 380 857
e 380 404
e 381 665
e 383 604
e 383 467
e 383 692
e 383 546
e 383 785
e 385 696
e 386 846
e 386 644
e 388 812
e 388 885
e 390 425
e 390 519
e 390 439
e 390 540
e 391 621
e 391 965
e 392 809
e 392 455
e 392 816
e 393 906
e 393 428
e 393 691
e 393 791
e 393 655
e 394 684
e 394 762
e 397 672
e 397 861
e 397 951
e 397 594
e 398 579
e 398 840
e 398 561
e 399 538
e 399 497
e 399 979
e 400 734
e 401 549
e 401 757
e 401 744
e 401 999
e 402 549
e 402 959
e 402 633
e 403 406
e 403 627
e 403 473
e 403 992
e 405 863
e 405 475
e 406 542
e 406 491
e 406 868
e 406 476
e 407 438
e 407 623
e 411 926
e 411 985
e 411 857
e 413 834
e 416 683
e 416 497
e 416 447
e 417 645
e 417 588
e 417 554
e 417 932
e 418 767
e 418 665
e 418 523
e 418 432
e 418 763
e 418 503
e 419 668
e 419 581
e 420 545
e 420 432
e 421 743
e 421 686
e 422 800
e 422 852
e 424 915
e 424 736
e 424 926
e 425 720
e 426 964
e 427 480
e 427 491
e 427 662
e 427 874
e 428 788
e 428 457
e 428 662
e 428 692
e 428 729
e 428 871
e 431 997
e 432 449
e 432 492
e 434 522
e 434 457
e 437 607
e 437 457
e 437 791
e 438 556
e 438 631
e 438 592
e 438 472
e 439 523
e 439 893
e 440 615
e 440 486
e 440 557
e 442 691
e 442 762
e 443 687
e 445 540
e 445 569
e 446 875
e 446 692
e 446 916
e 447 560
e 447 854
e 448 816
e 448 848
e 449 937
e 450 700
e 450 875
e 450 680
e 450 965
e 450 916
e 451 598
e 452 603
e 452 923
e 453 501
e 453 576
e 453 879
e 453 621
e 453 843
e 454 699
e 454 929
e 454 784
e 455 674
e 455 688
e 455 722
e 455 759
e 458 815
e 459 626
e 459 654
e 459 665
e 460 579
e 460 819
e 460 780
e 461 563
e 461 645
e 461 981
e 461 897
e 462 690
e 462 718
e 462 628
e 462 538
e 463 574
e 463 567
e 463 848
e 464 901
e 465 655
e 465 536
e 465 875
e 465 810
e 465 629
e 467 684
e 467 741
e 467 914
e 469 662
e 470 760
e 470 936
e 470 820
e 470 734
e 471 482
e 471 996
e 472 873
e 473 695
e 473 933
e 474 924
e 474 867
e 474 645
e 475 723
e 475 946
e 476 921
e 477 539
e 477 743
e 479 879
e 480 659
e 480 506
e 480 913
e 482 580
e 482 849
e 484 933
e 485 977
e 485 609
e 485 743
e 485 746
e 485 848
e 485 700
e 485 673
e 485 929
e 486 801
e 490 542
e 490 756
e 490 879
e 491 964
e 492 618
e 492 553
e 492 799
e 493 977
e 494 746
e 494 851
e 494 950
e 494 979
e 494 801
e 495 751
e 495 918
e 496 909
e 497 812
e 498 738
e 498 902
e 500 598
e 501 557
e 501 799
e 501 570
e 501 522
e 501 627
e 502 542
e 502 560
e 503 932
e 503 922
e 503 600
e 505 842
e 505 837
e 505 742
e 506 583
e 506 881
e 508 944
e 510 957
e 510 627
e 512 745
e 512 891
e 512 558
e 513 781
e 513 988
e 513 625
e 513 627
e 515 939
e 515 760
e 516 746
e 516 736
e 517 807
e 517 887
e 517 860
e 518 959
e 518 760
e 518 612
e 520 700
e 520 885
e 520 845
e 521 821
e 521 636
e 521 655
e 521 738
e 522 897
e 524 751
e 524 899
e 524 908
e 525 873
e 526 956
e 526 701
e 526 564
e 526 643
e 526 561
e 528 794
e 528 988
e 528 902
e 528 821
e 531 810
e 531 662
e 533 842
e 533 660
e 533 972
e 534 906
e 534 572
e 534 863
e 534 684
e 535 674
e 538 742
e 538 540
e 539 999
e 540 825
e 540 823
e 540 942
e 540 792
e 540 977
e 542 938
e 543 762
e 543 631
e 544 840
e 545 852
e 546 738
e 546 661
e 547 719
e 547 637
e 548 716
e 548 908
e 549 914
e 549 713
e 549 934
e 553 660
e 553 978
e 554 982
e 557 982
e 558 904
e 558 933
e 558 655
e 558 624
e 559 944
e 559 656
e 559 955
e 559 868
e 559 699
e 559 609
e 560 994
e 560 668
e 561 804
e 562 930
e 562 845
e 562 970
e 563 843
e 564 859
e 564 688
e 564 713
e 564 874
e 565 616
e 565 960
e 565 663
e 567 815
e 567 989
e 567 611
e 568 726
e 568 860
e 568 573
e 569 837
e 569 756
e 569 859
e 569 697
e 570 888
e 571 729
e 572 751
e 572 638
e 574 752
e 574 888
e 575 817
e 575 908
e 576 598
e 576 696
e 576 633
e 576 600
e 577 913
e 577 916
e 577 853
e 579 908
e 579 878
e 581 848
e 582 751
e 583 869
e 583 972
e 583 980
e 584 780
e 584 886
e 585 910
e 585 944
e 585 823
e 586 744
e 586 882
e 587 994
e 587 637
e 588 909
e 589 997
e 590 812
e 592 911
e 592 746
e 593 986
e 593 832
e 593 863
e 593 737
e 594 806
e 594 888
e 600 631
e 601 784
e 601 718
e 601 701
e 602 918
e 603 957
e 603 887
e 603 642
e 604 821
e 604 642
e 604 695
e 604 978
e 607 921
e 607 886
e 607 989
e 609 705
e 610 876
e 612 899
e 613 627
e 614 983
e 614 806
e 615 845
e 615 867
e 615 974
e 616 851
e 616 916
e 617 651
e 617 834
e 618 845
e 619 908
e 619 654
e 619 815
e 622 937
e 622 624
e 622 812
e 623 983
e 623 767
e 623 783
e 627 663
e 628 815
e 628 661
e 629 631
e 633 751
e 635 697
e 635 882
e 636 945
e 637 686
e 638 834
e 638 987
e 638 736
e 638 755
e 639 656
e 642 841
e 642 729
e 642 720
e 643 703
e 643 1000
e 645 722
e 647 747
e 647 930
e 649 655
e 649 904
e 655 765
e 655 993
e 660 931
e 661 742
e 663 999
e 663 734
e 663 959
e 664 930
e 664 824
e 664 784
e 666 863
e 666 831
e 666 857
e 667 808
e 668 850
e 669 956
e 669 718
e 669 936
e 671 796
e 671 786
e 673 965
e 678 863
e 678 908
e 679 873
e 679 817
e 679 725
e 680 897
e 680 985
e 681 783
e 681 851
e 681 911
e 682 768
e 683 730
e 683 915
e 685 923
e 688 930
e 688 925
e 690 936
e 691 866
e 691 858
e 694 774
e 695 862
e 698 747
e 699 977
e 700 957
e 701 945
e 701 847
e 701 837
e 701 719
e 704 838
e 705 862
e 705 984
e 707 813
e 707 965
e 707 950
e 707 875
e 707 878
e 707 807
e 711 927
e 711 985
e 713 865
e 714 915
e 715 980
e 715 866
e 715 864
e 716 892
e 718 858
e 720 985
e 722 746
e 722 780
e 723 726
e 725 875
e 726 735
e 726 886
e 726 876
e 726 902
e 726 777
e 729 794
e 730 994
e 730 767
e 734 833
e 737 825
e 742 918
e 742 901
e 742 964
e 744 998
e 745 934
e 745 812
e 745 965
e 746 965
e 746 964
e 746 910
e 747 779
e 748 887
e 755 887
e 756 956
e 757 885
e 759 978
e 759 981
e 760 839
e 762 981
e 762 809
e 762 847
e 763 999
e 766 868
e 766 985
e 766 804
e 766 950
e 767 798
e 767 911
e 767 806
e 768 964
e 773 779
e 774 853
e 777 838
e 780 908
e 780 914
e 782 859
e 782 922
e 784 925
e 784 833
e 785 849
e 786 960
e 789 882
e 790 945
e 790 819
e 791 826
e 791 914
e 794 936
e 794 857
e 796 994
e 796 821
e 797 871
e 798 799
e 800 939
e 801 995
e 801 854
e 801 820
e 804 880
e 805 951
e 805 930
e 806 955
e 806 876
e 808 982
e 808 819
e 810 859
e 812 913
e 815 862
e 817 995
e 819 928
e 819 969
e 819 996
e 820 862
e 820 902
e 825 946
e 826 852
e 832 848
e 832 865
e 833 909
e 834 838
e 837 866
e 839 886
e 841 986
e 845 886
e 846 866
e 847 973
e 848 851
e 848 920
e 849 981
e 850 853
e 854 937
e 855 932
e 857 860
e 860 995
e 861 880
e 861 865
e 864 983
e 866 918
e 869 918
e 869 960
e 875 984
e 876 928
e 878 984
e 878 915
e 882 890
e 890 909
e 890 964
e 890 974
e 891 950
e 892 951
e 892 993
e 892 957
e 893 934
e 893 894
e 893 935
e 898 978
e 900 944
e 902 993
e 906 995
e 908 976
e 909 994
e 914 934
e 915 931
e 916 929
e 916 969
e 918 955
e 925 931
e 926 929
e 926 934
e 927 932
e 932 997
e 933 963
e 942 988
e 956 957
e 973 976
