txt_Ins/graph-1000-13.txt
n 1000
e 0 524
e 0 55
e 0 765
e 0 997
e 0 573
e 0 198
e 1 393
e 1 351
e 1 50
e 1 5
e 1 670
e 3 306
e 3 324
e 3 993
e 3 462
e 5 30
e 5 864
e 5 69
e 5 693
e 6 613
e 6 987
e 6 553
e 8 64
e 8 791
e 8 463
e 8 344
e 12 815
e 12 556
e 12 613
e 12 298
e 12 997
e 13 267
e 13 29
e 13 449
e 13 971
e 13 192
e 14 490
e 14 285
e 14 773
e 15 874
e 15 448
e 15 799
e 15 314
e 15 691
e 15 993
e 15 934
e 15 25
e 17 625
e 17 112
e 17 971
e 17 857
e 18 329
e 18 485
e 18 602
e 18 37
e 19 963
e 19 228
e 19 575
e 22 500
e 22 238
e 22 135
e 22 495
e 22 24
e 22 148
e 22 458
e 23 612
e 23 478
e 23 493
e 23 811
e 23 143
e 23 684
e 23 279
e 23 185
e 23 734
e 24 307
e 24 45
e 24 777
e 24 77
e 24 588
e 25 733
e 25 658
e 25 253
e 25 574
e 25 184
e 25 643
e 27 547
e 27 601
e 27 377
e 27 193
e 27 570
e 28 380
e 28 171
e 28 621
e 28 945
e 28 510
e 28 864
e 28 336
e 29 690
e 29 215
e 29 901
e 30 875
e 30 823
e 30 233
e 30 904
e 30 564
e 30 695
e 30 865
e 31 166
e 31 216
e 31 267
e 36 655
e 36 794
e 36 864
e 36 812
e 36 247
e 36 99
e 37 564
e 37 879
e 37 484
e 38 249
e 38 298
e 38 555
e 38 272
e 39 225
e 39 533
e 39 671
e 39 459
e 39 522
e 39 579
e 40 129
e 40 313
e 40 684
e 40 43
e 41 642
e 41 491
e 41 954
e 43 921
e 43 303
e 44 290
e 44 884
e 44 148
e 44 430
e 44 638
e 44 489
e 45 698
e 45 534
e 45 283
e 45 904
e 45 361
e 45 247
e 46 710
e 46 306
e 46 912
e 46 643
e 48 635
e 48 57
e 48 993
e 48 248
e 48 132
e 49 558
e 49 593
e 49 405
e 49 442
e 49 329
e 49 511
e 50 830
e 50 321
e 51 291
e 51 537
e 51 993
e 51 544
e 51 225
e 52 493
e 52 183
e 52 556
e 52 612
e 52 214
e 53 548
e 53 625
e 53 817
e 53 880
e 54 995
e 54 858
e 54 937
e 54 724
e 54 538
e 54 470
e 55 535
e 55 930
e 55 796
e 55 555
e 57 831
e 57 572
e 57 420
e 57 679
e 57 999
e 58 842
e 58 928
e 58 893
e 58 962
e 58 263
e 59 824
e 59 519
e 59 372
e 62 971
e 62 309
e 62 387
e 62 427
e 62 872
e 62 670
e 63 261
e 63 402
e 63 424
e 63 280
e 64 950
e 64 358
e 65 454
e 65 154
e 65 499
e 67 968
e 67 623
e 67 297
e 67 939
e 69 178
e 69 854
e 69 436
e 69 259
e 71 181
e 71 925
e 71 249
e 71 671
e 71 228
e 72 403
e 72 140
e 72 279
e 73 216
e 73 692
e 73 218
e 73 710
e 73 543
e 73 79
e 75 450
e 75 131
e 75 747
e 75 862
e 77 259
e 77 339
e 77 99
e 77 152
e 77 380
e 78 897
e 78 211
e 78 307
e 78 102
e 79 779
e 79 925
e 79 294
e 79 613
e 79 833
e 79 958
e 79 756
e 80 524
e 80 147
e 80 611
e 80 851
e 81 872
e 81 365
e 81 305
e 82 290
e 82 572
e 82 778
e 82 581
e 82 860
e 84 790
e 84 266
e 84 581
e 84 136
e 85 981
e 85 376
e 85 618
e 85 333
e 85 948
e 86 282
e 86 355
e 86 866
e 89 889
e 89 175
e 89 870
e 90 350
e 90 535
e 90 964
e 90 116
e 90 320
e 91 931
e 91 254
e 91 410
e 91 721
e 92 981
e 92 437
e 92 796
e 92 780
e 93 601
e 93 707
e 93 112
e 95 666
e 95 991
e 95 371
e 95 146
e 95 954
e 96 764
e 96 842
e 96 281
e 97 471
e 97 288
e 97 257
e 97 831
e 98 702
e 98 376
e 98 171
e 98 185
e 99 891
e 99 469
e 99 904
e 99 102
e 99 572
e 100 367
e 100 450
e 100 215
e 100 481
e 100 625
e 100 545
e 101 873
e 101 665
e 101 492
e 102 367
e 102 254
e 103 385
e 103 754
e 103 117
e 103 707
e 103 444
e 104 817
e 104 523
e 104 133
e 104 173
e 104 926
e 105 670
e 105 130
e 105 697
e 106 109
e 106 910
e 106 925
e 106 772
e 106 887
e 108 949
e 108 210
e 108 865
e 108 115
e 108 222
e 108 546
e 108 624
e 109 252
e 109 387
e 109 449
e 109 836
e 109 396
e 110 458
e 110 561
e 110 617
e 110 223
e 112 306
e 112 654
e 112 476
e 112 165
e 112 841
e 113 227
e 113 530
e 113 921
e 113 559
e 114 208
e 114 314
e 114 183
e 115 489
e 115 789
e 115 898
e 116 369
e 116 706
e 116 172
e 116 308
e 116 908
e 116 733
e 117 592
e 117 126
e 117 833
e 117 225
e 117 848
e 118 862
e 118 497
e 118 469
e 120 740
e 120 396
e 120 122
e 120 956
e 120 547
e 122 679
e 122 691
e 122 842
e 123 366
e 123 203
e 123 614
e 123 641
e 123 511
e 124 283
e 124 215
e 124 570
e 124 491
e 124 599
e 124 845
e 125 691
e 125 456
e 125 150
e 125 181
e 125 778
e 126 548
e 126 521
e 126 258
e 129 603
e 129 820
e 129 340
e 129 580
e 129 254
e 129 589
e 130 512
e 130 173
e 130 415
e 130 691
e 130 246
e 130 171
e 131 180
e 131 295
e 131 495
e 131 998
e 131 519
e 131 184
e 131 837
e 132 344
e 132 578
e 132 348
e 132 566
e 133 873
e 133 252
e 133 917
e 133 638
e 133 668
e 133 399
e 134 185
e 134 192
e 134 312
e 135 509
e 135 908
e 135 176
e 136 152
e 136 425
e 136 222
e 136 700
e 136 389
e 137 561
e 137 707
e 137 917
e 137 798
e 137 923
e 137 485
e 138 316
e 138 478
e 138 309
e 140 156
e 140 638
e 140 325
e 140 497
e 140 729
e 141 603
e 141 454
e 141 722
e 141 773
e 141 659
e 143 382
e 143 152
e 143 759
e 143 795
e 143 511
e 146 516
e 146 586
e 146 157
e 146 838
e 147 689
e 147 288
e 148 306
e 148 931
e 148 419
e 148 706
e 149 162
e 149 896
e 149 396
e 149 571
e 149 384
e 149 579
e 150 497
e 150 849
e 151 155
e 151 898
e 151 602
e 152 653
e 152 838
e 152 797
e 152 252
e 152 614
e 152 934
e 153 469
e 153 494
e 153 694
e 153 851
e 153 863
e 154 510
e 154 907
e 154 841
e 154 374
e 155 420
e 155 589
e 155 939
e 156 782
e 156 562
e 156 661
e 156 958
e 156 181
e 156 378
e 157 273
e 157 650
e 157 534
e 157 929
e 158 756
e 158 548
e 158 715
e 158 360
e 158 523
e 159 224
e 159 817
e 159 878
e 159 304
e 159 927
e 159 313
e 161 569
e 161 193
e 161 494
e 161 941
e 161 202
e 161 741
e 161 325
e 162 469
e 162 978
e 162 523
e 163 653
e 163 849
e 163 772
e 163 252
e 163 530
e 164 681
e 164 622
e 164 682
e 164 371
e 164 313
e 165 424
e 165 368
e 166 978
e 166 463
e 167 818
e 167 908
e 167 996
e 167 719
e 167 456
e 167 909
e 167 200
e 168 430
e 168 461
e 168 686
e 168 397
e 171 233
e 172 670
e 172 328
e 173 725
e 173 787
e 173 416
e 173 584
e 173 699
e 174 696
e 174 522
e 174 451
e 174 464
e 175 853
e 175 497
e 175 356
e 175 988
e 175 713
e 176 900
e 176 659
e 178 788
e 178 587
e 178 545
e 178 222
e 179 366
e 179 754
e 179 702
e 179 224
e 179 943
e 179 255
e 180 822
e 180 545
e 180 938
e 180 436
e 181 390
e 181 530
e 182 914
e 182 349
e 182 312
e 182 995
e 182 673
e 183 519
e 183 880
e 183 643
e 184 393
e 184 365
e 184 387
e 185 556
e 185 239
e 191 534
e 191 289
e 191 423
e 191 764
e 191 515
e 192 886
e 192 983
e 192 307
e 192 471
e 192 278
e 193 992
e 193 718
e 193 641
e 193 930
e 193 862
e 194 215
e 194 710
e 194 338
e 194 484
e 195 653
e 195 242
e 195 672
e 196 702
e 196 836
e 196 980
e 198 497
e 198 230
e 198 641
e 198 419
e 198 541
e 200 484
e 200 627
e 200 934
e 202 468
e 202 539
e 202 803
e 203 442
e 203 886
e 204 321
e 204 447
e 204 490
e 204 334
e 204 575
e 205 713
e 205 932
e 205 538
e 207 351
e 207 552
e 207 981
e 207 614
e 207 332
e 207 978
e 208 581
e 208 848
e 210 493
e 210 295
e 210 316
e 210 403
e 210 220
e 211 483
e 211 874
e 211 870
e 211 585
e 213 661
e 213 377
e 213 950
e 214 379
e 214 694
e 214 600
e 214 322
e 215 471
e 215 507
e 215 815
e 215 776
e 215 868
e 215 679
e 216 694
e 216 249
e 217 272
e 217 444
e 217 518
e 217 973
e 218 830
e 218 268
e 218 588
e 219 410
e 219 624
e 219 468
e 219 734
e 219 618
e 219 239
e 220 710
e 220 836
e 220 841
e 220 542
e 220 893
e 220 890
e 220 908
e 221 569
e 221 868
e 221 399
e 222 507
e 222 663
e 222 664
e 222 892
e 223 621
e 223 229
e 223 609
e 224 495
e 224 599
e 224 562
e 224 780
e 225 823
e 226 986
e 226 412
e 226 258
e 226 728
e 226 557
e 227 959
e 227 679
e 227 301
e 227 646
e 227 831
e 228 919
e 229 433
e 229 923
e 229 457
e 229 602
e 230 421
e 230 678
e 231 913
e 231 348
e 231 901
e 231 405
e 232 992
e 232 897
e 232 563
e 233 921
e 233 587
e 233 794
e 233 654
e 237 349
e 237 313
e 237 884
e 237 390
e 237 692
e 238 898
e 238 419
e 238 337
e 238 822
e 238 481
e 239 499
e 239 784
e 241 999
e 241 738
e 241 290
e 241 357
e 242 380
e 242 740
e 242 626
e 242 892
e 242 915
e 242 815
e 244 620
e 244 867
e 244 330
e 244 754
e 244 937
e 245 920
e 245 591
e 245 328
e 246 449
e 246 858
e 247 853
e 247 773
e 247 545
e 247 610
e 247 881
e 248 796
e 248 920
e 248 402
e 248 781
e 249 345
e 249 722
e 250 258
e 250 939
e 250 703
e 250 767
e 250 538
e 250 736
e 253 544
e 253 852
e 253 289
e 254 737
e 254 710
e 254 706
e 254 790
e 255 338
e 255 589
e 257 812
e 257 337
e 257 569
e 257 635
e 258 461
e 258 861
e 259 533
e 260 627
e 260 815
e 260 968
e 260 747
e 260 400
e 260 505
e 260 617
e 261 558
e 261 784
e 261 617
e 261 804
e 261 278
e 261 589
e 263 333
e 263 779
e 263 793
e 263 850
e 263 658
e 264 571
e 264 778
e 264 783
e 265 330
e 265 343
e 265 703
e 266 976
e 266 441
e 267 521
e 267 954
e 268 718
e 268 493
e 269 954
e 269 788
e 269 363
e 271 747
e 271 773
e 271 901
e 271 697
e 272 367
e 273 628
e 273 614
e 273 400
e 278 340
e 278 634
e 279 496
e 279 558
e 279 808
e 279 523
e 280 794
e 280 352
e 280 680
e 281 863
e 281 335
e 281 624
e 281 796
e 282 504
e 282 812
e 283 511
e 283 352
e 283 899
e 285 681
e 285 308
e 285 873
e 285 459
e 287 803
e 287 439
e 287 539
e 287 806
e 287 866
e 288 609
e 288 899
e 289 580
e 289 899
e 289 738
e 289 948
e 290 393
e 290 366
e 290 762
e 290 616
e 291 794
e 291 650
e 291 445
e 294 666
e 294 955
e 294 924
e 295 575
e 295 715
e 295 976
e 295 500
e 295 358
e 297 742
e 297 703
e 297 460
e 298 971
e 298 956
e 298 466
e 298 996
e 298 972
e 298 818
e 301 620
e 301 897
e 301 668
e 301 343
e 301 396
e 301 357
e 302 410
e 302 648
e 302 563
e 302 637
e 302 425
e 303 864
e 303 510
e 303 975
e 303 740
e 303 535
e 304 751
e 304 452
e 304 983
e 304 555
e 304 743
e 305 360
e 305 854
e 305 476
e 305 677
e 305 361
e 305 553
e 305 345
e 306 839
e 306 853
e 306 939
e 306 885
e 307 875
e 307 948
e 307 374
e 307 458
e 308 678
e 308 600
e 309 919
e 309 406
e 309 390
e 310 634
e 310 937
e 310 751
e 312 847
e 313 819
e 313 603
e 314 671
e 316 864
e 316 483
e 317 677
e 317 331
e 317 948
e 317 410
e 318 833
e 318 461
e 318 460
e 318 693
e 320 600
e 320 546
e 321 890
e 322 384
e 322 522
e 322 343
e 322 610
e 322 923
e 322 917
e 322 603
e 324 637
e 324 839
e 325 893
e 327 864
e 327 788
e 327 583
e 327 903
e 328 343
e 329 485
e 329 777
e 329 582
e 330 714
e 330 684
e 330 618
e 330 778
e 331 997
e 331 352
e 331 820
e 332 804
e 332 501
e 332 987
e 332 583
e 332 921
e 333 777
e 333 338
e 333 677
e 333 643
e 334 507
e 334 462
e 334 405
e 334 412
e 335 622
e 335 448
e 335 404
e 336 690
e 336 475
e 336 456
e 336 891
e 337 402
e 337 979
e 337 464
e 337 735
e 338 459
e 338 392
e 338 479
e 338 969
e 339 423
e 339 853
e 339 691
e 339 449
e 339 387
e 339 363
e 340 404
e 340 685
e 340 473
e 342 714
e 342 692
e 342 368
e 342 665
e 342 601
e 342 606
e 342 563
e 342 431
e 343 845
e 343 346
e 344 932
e 344 929
e 345 913
e 346 397
e 346 533
e 346 825
e 347 787
e 347 870
e 347 985
e 348 905
e 348 567
e 348 963
e 349 511
e 349 738
e 350 586
e 350 934
e 351 841
e 351 648
e 351 785
e 351 563
e 352 983
e 353 489
e 353 844
e 353 552
e 354 548
e 354 567
e 354 601
e 354 524
e 355 627
e 355 575
e 356 427
e 356 363
e 356 751
e 357 504
e 357 543
e 358 860
e 358 524
e 358 418
e 358 978
e 360 685
e 360 793
e 361 962
e 361 552
e 363 840
e 363 794
e 363 846
e 363 944
e 363 512
e 363 514
e 365 766
e 365 452
e 366 576
e 366 548
e 366 457
e 367 518
e 368 991
e 368 446
e 368 600
e 368 580
e 369 971
e 369 791
e 369 588
e 371 677
e 371 799
e 371 425
e 371 600
e 372 672
e 372 958
e 372 780
e 372 986
e 373 446
e 373 969
e 373 563
e 373 689
e 374 874
e 374 939
e 374 686
e 376 847
e 377 492
e 377 702
e 377 658
e 377 556
e 377 745
e 377 464
e 378 922
e 378 460
e 379 539
e 379 856
e 379 403
e 380 664
e 382 603
e 382 466
e 382 691
e 382 545
e 382 784
e 384 695
e 385 845
e 385 643
e 387 811
e 387 884
e 389 424
e 389 518
e 389 438
e 389 539
e 390 620
e 390 964
e 391 808
e 391 454
e 391 815
e 392 905
e 392 427
e 392 690
e 392 790
e 392 654
e 393 683
e 393 761
e 396 671
e 396 860
e 396 950
e 396 593
e 397 578
e 397 839
e 397 560
e 398 537
e 398 496
e 398 978
e 399 733
e 400 548
e 400 756
e 400 743
e 400 998
e 401 548
e 401 958
e 401 632
e 402 405
e 402 626
e 402 472
e 402 991
e 404 862
e 404 474
e 405 541
e 405 490
e 405 867
e 405 475
e 406 437
e 406 622
e 410 925
e 410 984
e 410 856
e 412 833
e 415 682
e 415 496
e 415 446
e 416 644
e 416 587
e 416 553
e 416 931
e 417 766
e 417 664
e 417 522
e 417 431
e 417 762
e 417 502
e 418 667
e 418 580
e 419 544
e 419 431
e 420 742
e 420 685
e 421 799
e 421 851
e 423 914
e 423 735
e 423 925
e 424 719
e 425 963
e 426 479
e 426 490
e 426 661
e 426 873
e 427 787
e 427 456
e 427 661
e 427 691
e 427 728
e 427 870
e 430 996
e 431 448
e 431 491
e 433 521
e 433 456
e 436 606
e 436 456
e 436 790
e 437 555
e 437 630
e 437 591
e 437 471
e 438 522
e 438 892
e 439 614
e 439 485
e 439 556
e 441 690
e 441 761
e 442 686
e 444 539
e 444 568
e 445 874
e 445 691
e 445 915
e 446 559
e 446 853
e 447 815
e 447 847
e 448 936
e 449 699
e 449 874
e 449 679
e 449 964
e 449 915
e 450 597
e 451 602
e 451 922
e 452 500
e 452 575
e 452 878
e 452 620
e 452 842
e 453 698
e 453 928
e 453 783
e 454 673
e 454 687
e 454 721
e 454 758
e 457 814
e 458 625
e 458 653
e 458 664
e 459 578
e 459 818
e 459 779
e 460 562
e 460 644
e 460 980
e 460 896
e 461 689
e 461 717
e 461 627
e 461 537
e 462 573
e 462 566
e 462 847
e 463 900
e 464 654
e 464 535
e 464 874
e 464 809
e 464 628
e 466 683
e 466 740
e 466 913
e 468 661
e 469 759
e 469 935
e 469 819
e 469 733
e 470 481
e 470 995
e 471 872
e 472 694
e 472 932
e 473 923
e 473 866
e 473 644
e 474 722
e 474 945
e 475 920
e 476 538
e 476 742
e 478 878
e 479 658
e 479 505
e 479 912
e 481 579
e 481 848
e 483 932
e 484 976
e 484 608
e 484 742
e 484 745
e 484 847
e 484 699
e 484 672
e 484 928
e 485 800
e 489 541
e 489 755
e 489 878
e 490 963
e 491 617
e 491 552
e 491 798
e 492 976
e 493 745
e 493 850
e 493 949
e 493 978
e 493 800
e 494 750
e 494 917
e 495 908
e 496 811
e 497 737
e 497 901
e 499 597
e 500 556
e 500 798
e 500 569
e 500 521
e 500 626
e 501 541
e 501 559
e 502 931
e 502 921
e 502 599
e 504 841
e 504 836
e 504 741
e 505 582
e 505 880
e 507 943
e 509 956
e 509 626
e 511 744
e 511 890
e 511 557
e 512 780
e 512 987
e 512 624
e 512 626
e 514 938
e 514 759
e 515 745
e 515 735
e 516 806
e 516 886
e 516 859
e 517 958
e 517 759
e 517 611
e 519 699
e 519 884
e 519 844
e 520 820
e 520 635
e 520 654
e 520 737
e 521 896
e 523 750
e 523 898
e 523 907
e 524 872
e 525 955
e 525 700
e 525 563
e 525 642
e 525 560
e 527 793
e 527 987
e 527 901
e 527 820
e 530 809
e 530 661
e 532 841
e 532 659
e 532 971
e 533 905
e 533 571
e 533 862
e 533 683
e 534 673
e 537 741
e 537 539
e 538 998
e 539 824
e 539 822
e 539 941
e 539 791
e 539 976
e 541 937
e 542 761
e 542 630
e 543 839
e 544 851
e 545 737
e 545 660
e 546 718
e 546 636
e 547 715
e 547 907
e 548 913
e 548 712
e 548 933
e 552 659
e 552 977
e 553 981
e 556 981
e 557 903
e 557 932
e 557 654
e 557 623
e 558 943
e 558 655
e 558 954
e 558 867
e 558 698
e 558 608
e 559 993
e 559 667
e 560 803
e 561 929
e 561 844
e 561 969
e 562 842
e 563 858
e 563 687
e 563 712
e 563 873
e 564 615
e 564 959
e 564 662
e 566 814
e 566 988
e 566 610
e 567 725
e 567 859
e 567 572
e 568 836
e 568 755
e 568 858
e 568 696
e 569 887
e 570 728
e 571 750
e 571 637
e 573 751
e 573 887
e 574 816
e 574 907
e 575 597
e 575 695
e 575 632
e 575 599
e 576 912
e 576 915
e 576 852
e 578 907
e 578 877
e 580 847
e 581 750
e 582 868
e 582 971
e 582 979
e 583 779
e 583 885
e 584 909
e 584 943
e 584 822
e 585 743
e 585 881
e 586 993
e 586 636
e 587 908
e 588 996
e 589 811
e 591 910
e 591 745
e 592 985
e 592 831
e 592 862
e 592 736
e 593 805
e 593 887
e 599 630
e 600 783
e 600 717
e 600 700
e 601 917
e 602 956
e 602 886
e 602 641
e 603 820
e 603 641
e 603 694
e 603 977
e 606 920
e 606 885
e 606 988
e 608 704
e 609 875
e 611 898
e 612 626
e 613 982
e 613 805
e 614 844
e 614 866
e 614 973
e 615 850
e 615 915
e 616 650
e 616 833
e 617 844
e 618 907
e 618 653
e 618 814
e 621 936
e 621 623
e 621 811
e 622 982
e 622 766
e 622 782
e 626 662
e 627 814
e 627 660
e 628 630
e 632 750
e 634 696
e 634 881
e 635 944
e 636 685
e 637 833
e 637 986
e 637 735
e 637 754
e 638 655
e 641 840
e 641 728
e 641 719
e 642 702
e 642 999
e 644 721
e 646 746
e 646 929
e 648 654
e 648 903
e 654 764
e 654 992
e 659 930
e 660 741
e 662 998
e 662 733
e 662 958
e 663 929
e 663 823
e 663 783
e 665 862
e 665 830
e 665 856
e 666 807
e 667 849
e 668 955
e 668 717
e 668 935
e 670 795
e 670 785
e 672 964
e 677 862
e 677 907
e 678 872
e 678 816
e 678 724
e 679 896
e 679 984
e 680 782
e 680 850
e 680 910
e 681 767
e 682 729
e 682 914
e 684 922
e 687 929
e 687 924
e 689 935
e 690 865
e 690 857
e 693 773
e 694 861
e 697 746
e 698 976
e 699 956
e 700 944
e 700 846
e 700 836
e 700 718
e 703 837
e 704 861
e 704 983
e 706 812
e 706 964
e 706 949
e 706 874
e 706 877
e 706 806
e 710 926
e 710 984
e 712 864
e 713 914
e 714 979
e 714 865
e 714 863
e 715 891
e 717 857
e 719 984
e 721 745
e 721 779
e 722 725
e 724 874
e 725 734
e 725 885
e 725 875
e 725 901
e 725 776
e 728 793
e 729 993
e 729 766
e 733 832
e 736 824
e 741 917
e 741 900
e 741 963
e 743 997
e 744 933
e 744 811
e 744 964
e 745 964
e 745 963
e 745 909
e 746 778
e 747 886
e 754 886
e 755 955
e 756 884
e 758 977
e 758 980
e 759 838
e 761 980
e 761 808
e 761 846
e 762 998
e 765 867
e 765 984
e 765 803
e 765 949
e 766 797
e 766 910
e 766 805
e 767 963
e 772 778
e 773 852
e 776 837
e 779 907
e 779 913
e 781 858
e 781 921
e 783 924
e 783 832
e 784 848
e 785 959
e 788 881
e 789 944
e 789 818
e 790 825
e 790 913
e 793 935
e 793 856
e 795 993
e 795 820
e 796 870
e 797 798
e 799 938
e 800 994
e 800 853
e 800 819
e 803 879
e 804 950
e 804 929
e 805 954
e 805 875
e 807 981
e 807 818
e 809 858
e 811 912
e 814 861
e 816 994
e 818 927
e 818 968
e 818 995
e 819 861
e 819 901
e 824 945
e 825 851
e 831 847
e 831 864
e 832 908
e 833 837
e 836 865
e 838 885
e 840 985
e 844 885
e 845 865
e 846 972
e 847 850
e 847 919
e 848 980
e 849 852
e 853 936
e 854 931
e 856 859
e 859 994
e 860 879
e 860 864
e 863 982
e 865 917
e 868 917
e 868 959
e 874 983
e 875 927
e 877 983
e 877 914
e 881 889
e 889 908
e 889 963
e 889 973
e 890 949
e 891 950
e 891 992
e 891 956
e 892 933
e 892 893
e 892 934
e 897 977
e 899 943
e 901 992
e 905 994
e 907 975
e 908 993
e 913 933
e 914 930
e 915 928
e 915 968
e 917 954
e 924 930
e 925 928
e 925 933
e 926 931
e 931 996
e 932 962
e 941 987
e 955 956
e 972 975
